language Essence 1.3

letting class be
        function(1 --> 1, 2 --> 1, 3 --> 1, 4 --> 1, 5 --> 1, 6 --> 1, 7 --> 1, 8 --> 1, 9 --> 1, 10 --> 1, 11 --> 1,
                 12 --> 1, 13 --> 1, 14 --> 1, 15 --> 1, 16 --> 1, 17 --> 1, 18 --> 1, 19 --> 1, 20 --> 1, 21 --> 1)
letting deck_length be 97
letting deck_width be 91
letting length be
        function(1 --> 1, 2 --> 1, 3 --> 1, 4 --> 1, 5 --> 5, 6 --> 1, 7 --> 1, 8 --> 1, 9 --> 38, 10 --> 1, 11 --> 1,
                 12 --> 1, 13 --> 1, 14 --> 1, 15 --> 4, 16 --> 1, 17 --> 16, 18 --> 1, 19 --> 1, 20 --> 2, 21 --> 1)
letting n_classes be 1
letting n_containers be 21
letting separation be function()
letting width be
        function(1 --> 1, 2 --> 1, 3 --> 1, 4 --> 1, 5 --> 27, 6 --> 1, 7 --> 1, 8 --> 1, 9 --> 1, 10 --> 1, 11 --> 86,
                 12 --> 1, 13 --> 1, 14 --> 2, 15 --> 1, 16 --> 1, 17 --> 46, 18 --> 1, 19 --> 1, 20 --> 66, 21 --> 1)
